<?xml version="1.0" encoding="UTF-8"?><osil xmlns="os.optimizationservices.org" xmlns:xsi="http://www.w3.org/2001/XMLSchema-instance" xsi:schemaLocation="os.optimizationservices.org http://www.optimizationservices.org/schemas/2.0/OSiL.xsd"><instanceHeader><name>ghg_2veh</name></instanceHeader><instanceData><variables numberOfVariables="57"><var name="b1" type="B" ub="1"/><var name="b2" type="B" ub="1"/><var name="b3" type="B" ub="1"/><var name="b4" type="B" ub="1"/><var name="b5" type="B" ub="1"/><var name="b6" type="B" ub="1"/><var name="b7" type="B" ub="1"/><var name="b8" type="B" ub="1"/><var name="b9" type="B" ub="1"/><var name="b10" type="B" ub="1"/><var name="b11" type="B" ub="1"/><var name="b12" type="B" ub="1"/><var name="b13" type="B" ub="1"/><var name="b14" type="B" ub="1"/><var name="b15" type="B" ub="1"/><var name="b16" type="B" ub="1"/><var name="b17" type="B" ub="1"/><var name="b18" type="B" ub="1"/><var name="x19" lb=".526315789473684" ub="1.05263157894737"/><var name="x20" lb=".961538461538462" ub="2.11538461538462"/><var name="x21" lb=".2" ub="1"/><var name="x22" ub=".8"/><var name="x23" lb="6" ub="13"/><var name="x24" lb="6" ub="13"/><var name="x25" lb=".26" ub=".35"/><var name="x26" ub="90"/><var name="x27" lb="4.9" ub="5.5"/><var name="x28" lb="55" ub="63"/><var name="x29"/><var name="x30" ub="200"/><var name="x31" lb=".296392099803303" ub=".404171045186323"/><var name="x32" lb=".134723681728774" ub=".229030258938916"/><var name="x33" ub="26"/><var name="x34" ub="1"/><var name="x35" ub="34.1"/><var name="x36" ub="1"/><var name="x37" lb=".526315789473684" ub="1.05263157894737"/><var name="x38" lb=".961538461538462" ub="2.11538461538462"/><var name="x39" lb=".2" ub="1"/><var name="x40" ub=".8"/><var name="x41" lb="6" ub="13"/><var name="x42" lb="6" ub="13"/><var name="x43" lb=".26" ub=".35"/><var name="x44" ub="90"/><var name="x45" lb="4.9" ub="5.5"/><var name="x46" lb="55" ub="63"/><var name="x47"/><var name="x48" ub="200"/><var name="x49" lb=".296392099803303" ub=".404171045186323"/><var name="x50" lb=".134723681728774" ub=".229030258938916"/><var name="x51" ub="26"/><var name="x52" ub="1"/><var name="x53" ub="34.1"/><var name="x54" ub="1"/><var name="x55" ub="200"/><var name="x56" ub="34.1"/><var name="x57" ub="1"/></variables><objectives><obj maxOrMin="min" name="defObj_objvar" numberOfObjCoef="2"><coef idx="28">1</coef><coef idx="46">1</coef></obj></objectives><constraints numberOfConstraints="62"><con name="e1" lb="0" ub="0"/><con name="e2" lb="4.960068215723" ub="4.960068215723"/><con name="e3" lb="57.679680208231" ub="57.679680208231"/><con name="e4" lb="44.230616625681" ub="44.230616625681"/><con name="e5" lb="32.102172356117" ub="32.102172356117"/><con name="e6" lb=".140278656706" ub=".140278656706"/><con name="e7" ub="11"/><con name="e8" ub="11"/><con name="e9" lb=".32"/><con name="e10" lb="0" ub="0"/><con name="e11" lb="4.960068215723" ub="4.960068215723"/><con name="e12" lb="57.679680208231" ub="57.679680208231"/><con name="e13" lb="44.230616625681" ub="44.230616625681"/><con name="e14" lb="32.102172356117" ub="32.102172356117"/><con name="e15" lb=".140278656706" ub=".140278656706"/><con name="e16" ub="11"/><con name="e17" ub="11"/><con name="e18" lb=".32"/><con name="e19" lb="33.7894914681534" ub="33.7894914681534"/><con name="e20" lb="1" ub="1"/><con name="e21" lb=".29587368369345" ub=".29587368369345"/><con name="e22" lb=".194162178290626" ub=".194162178290626"/><con name="e23" lb="0" ub="0"/><con name="e24" lb="33.7894914681534" ub="33.7894914681534"/><con name="e25" lb="1" ub="1"/><con name="e26" lb="33.7894914681534" ub="33.7894914681534"/><con name="e27" lb="1" ub="1"/><con name="e28" lb=".29587368369345" ub=".29587368369345"/><con name="e29" lb=".194162178290626" ub=".194162178290626"/><con name="e30" lb="0" ub="0"/><con name="e31" lb="33.7894914681534" ub="33.7894914681534"/><con name="e32" lb="1" ub="1"/><con name="e33" lb="1" ub="1"/><con name="e34" ub="0"/><con name="e35" lb="0"/><con name="e36" ub="0"/><con name="e37" lb="0"/><con name="e38" lb="1" ub="1"/><con name="e39" ub="0"/><con name="e40" lb="0"/><con name="e41" ub="0"/><con name="e42" lb="0"/><con name="e43" ub="1"/><con name="e44" lb="0"/><con name="e45" lb="1" ub="1"/><con name="e46" ub="0"/><con name="e47" lb="0"/><con name="e48" ub="0"/><con name="e49" lb="0"/><con name="e50" lb="1" ub="1"/><con name="e51" ub="0"/><con name="e52" lb="0"/><con name="e53" ub="0"/><con name="e54" lb="0"/><con name="e55" ub="1"/><con name="e56" lb="0"/><con name="e57" lb="0" ub="0"/><con name="e58" lb="1" ub="1"/><con name="e59" lb="0" ub="0"/><con name="e60" lb="1" ub="1"/><con name="e62" lb="33.7894914681534" ub="33.7894914681534"/><con name="e63" lb="1" ub="1"/></constraints><linearConstraintCoefficients numberOfValues="64"><start><el mult="33" incr="1">0</el><el mult="5">35</el><el mult="5">38</el><el>40</el><el>41</el><el mult="3">44</el><el>45</el><el>46</el><el mult="3">49</el><el>50</el><el>51</el><el mult="3" incr="1">53</el><el>58</el><el>59</el><el mult="3" incr="1">62</el></start><colIdx><el mult="3" incr="1">25</el><el mult="3" incr="1">22</el><el mult="3" incr="1">22</el><el mult="3" incr="1">43</el><el mult="3" incr="1">40</el><el mult="3" incr="1">40</el><el>32</el><el>33</el><el>30</el><el>31</el><el>29</el><el>34</el><el>35</el><el>50</el><el>51</el><el>48</el><el>49</el><el>47</el><el>52</el><el>53</el><el mult="6" incr="1">0</el><el>2</el><el>4</el><el>3</el><el mult="3" incr="1">6</el><el mult="5" incr="1">7</el><el>10</el><el>11</el><el>8</el><el>10</el><el>9</el><el>28</el><el mult="3" incr="1">12</el><el>46</el><el mult="3" incr="1">15</el><el>55</el><el>56</el></colIdx><value><el mult="40">1</el><el>-1</el><el mult="3">1</el><el mult="2">-200</el><el mult="3">1</el><el mult="2">-200</el><el mult="2">1</el><el>-1</el><el mult="10">1</el></value></linearConstraintCoefficients><quadraticCoefficients numberOfQuadraticTerms="26"><qTerm idx="33" idxOne="0" idxTwo="25" coef="1"/><qTerm idx="34" idxOne="1" idxTwo="25" coef="1"/><qTerm idx="35" idxOne="1" idxTwo="25" coef="1"/><qTerm idx="35" idxOne="1" idxTwo="54" coef="-1"/><qTerm idx="36" idxOne="2" idxTwo="25" coef="1"/><qTerm idx="36" idxOne="2" idxTwo="54" coef="-1"/><qTerm idx="38" idxOne="3" idxTwo="29" coef="1"/><qTerm idx="39" idxOne="4" idxTwo="29" coef="1"/><qTerm idx="40" idxOne="4" idxTwo="29" coef="1"/><qTerm idx="40" idxOne="4" idxTwo="54" coef="-1"/><qTerm idx="41" idxOne="5" idxTwo="29" coef="1"/><qTerm idx="41" idxOne="5" idxTwo="54" coef="-1"/><qTerm idx="43" idxOne="0" idxTwo="3" coef="1"/><qTerm idx="45" idxOne="6" idxTwo="43" coef="1"/><qTerm idx="45" idxOne="6" idxTwo="54" coef="-1"/><qTerm idx="46" idxOne="7" idxTwo="43" coef="1"/><qTerm idx="46" idxOne="7" idxTwo="54" coef="-1"/><qTerm idx="47" idxOne="7" idxTwo="43" coef="1"/><qTerm idx="48" idxOne="8" idxTwo="43" coef="1"/><qTerm idx="50" idxOne="9" idxTwo="47" coef="1"/><qTerm idx="50" idxOne="9" idxTwo="54" coef="-1"/><qTerm idx="51" idxOne="10" idxTwo="47" coef="1"/><qTerm idx="51" idxOne="10" idxTwo="54" coef="-1"/><qTerm idx="52" idxOne="10" idxTwo="47" coef="1"/><qTerm idx="53" idxOne="11" idxTwo="47" coef="1"/><qTerm idx="55" idxOne="6" idxTwo="9" coef="1"/></quadraticCoefficients><nonlinearExpressions numberOfNonlinearExpressions="30"><nl idx="0"><product><variable idx="20" coef="-21.6"/><variable idx="21"/><variable idx="26"/></product></nl><nl idx="1"><negate><sum><product><power><variable idx="18"/><number value="3"/></power><number value="7.852585706e-3"/></product><product><power><variable idx="19"/><number value="3"/></power><number value=".154288922601"/></product><product><power><variable idx="20"/><number value="3"/></power><number value=".352933730854"/></product><product><power><variable idx="18"/><number value="2"/></power><number value="-4.816150342e-3"/><variable idx="19"/></product><product><power><variable idx="19"/><number value="2"/></power><number value="-5.47943134e-3"/><variable idx="18"/></product><product><power><variable idx="18"/><number value="2"/></power><number value="-2.533808214e-2"/><variable idx="20"/></product><product><power><variable idx="20"/><number value="2"/></power><number value="2.1201136e-4"/><variable idx="18"/></product><product><power><variable idx="19"/><number value="2"/></power><number value="-5.7118497613e-2"/><variable idx="20"/></product><product><power><variable idx="20"/><number value="2"/></power><number value="-4.2739509965e-2"/><variable idx="19"/></product><product><variable idx="18" coef="-1.583097252e-2"/><variable idx="19"/><variable idx="20"/></product><product><power><variable idx="18"/><number value="2"/></power><number value="-1.028174658e-3"/></product><product><power><variable idx="19"/><number value="2"/></power><number value="-.805369774847"/></product><product><power><variable idx="20"/><number value="2"/></power><number value="-.655580550098"/></product><product><variable idx="18" coef="5.7270405947e-2"/><variable idx="19"/></product><product><variable idx="18" coef="7.973036236e-2"/><variable idx="20"/></product><product><variable idx="19" coef=".342091579946"/><variable idx="20"/></product><variable idx="18" coef="-.191345333621"/><variable idx="19" coef="1.188971392024"/><variable idx="20" coef="-.346682012779"/></sum></negate></nl><nl idx="2"><negate><sum><product><power><variable idx="18"/><number value="3"/></power><number value="2.21406746341"/></product><product><power><variable idx="19"/><number value="3"/></power><number value="1.086659693552"/></product><product><power><variable idx="20"/><number value="3"/></power><number value="5.577874978662"/></product><product><power><variable idx="18"/><number value="2"/></power><number value="-.815241697738"/><variable idx="19"/></product><product><power><variable idx="19"/><number value="2"/></power><number value=".509578110533"/><variable idx="18"/></product><product><power><variable idx="18"/><number value="2"/></power><number value="1.561758113326"/><variable idx="20"/></product><product><power><variable idx="20"/><number value="2"/></power><number value="2.212321055022"/><variable idx="18"/></product><product><power><variable idx="19"/><number value="2"/></power><number value="-.612567680918"/><variable idx="20"/></product><product><power><variable idx="20"/><number value="2"/></power><number value=".254008083604"/><variable idx="19"/></product><product><variable idx="18" coef="-.159429747244"/><variable idx="19"/><variable idx="20"/></product><product><power><variable idx="18"/><number value="2"/></power><number value="-8.905599398536"/></product><product><power><variable idx="19"/><number value="2"/></power><number value="-6.095001164559"/></product><product><power><variable idx="20"/><number value="2"/></power><number value="-15.207539664993"/></product><product><variable idx="18" coef="8.9172114876e-2"/><variable idx="19"/></product><product><variable idx="18" coef="-3.273526677614"/><variable idx="20"/></product><product><variable idx="19" coef="2.498376358946"/><variable idx="20"/></product><variable idx="18" coef="2.621894664006"/><variable idx="19" coef="9.284846067558"/><variable idx="20" coef="5.837143728557"/></sum></negate></nl><nl idx="3"><negate><sum><product><power><variable idx="18"/><number value="3"/></power><number value="1.456640469666"/></product><product><power><variable idx="19"/><number value="3"/></power><number value="-5.495718264905"/></product><product><power><variable idx="20"/><number value="3"/></power><number value="-28.456261951645"/></product><product><power><variable idx="18"/><number value="2"/></power><number value=".912917970314"/><variable idx="19"/></product><product><power><variable idx="19"/><number value="2"/></power><number value="-.88119920631"/><variable idx="18"/></product><product><power><variable idx="18"/><number value="2"/></power><number value="-1.049763024383"/><variable idx="20"/></product><product><power><variable idx="20"/><number value="2"/></power><number value="-.308107344863"/><variable idx="18"/></product><product><power><variable idx="19"/><number value="2"/></power><number value="2.043536297441"/><variable idx="20"/></product><product><power><variable idx="20"/><number value="2"/></power><number value="15.609611231641"/><variable idx="19"/></product><product><variable idx="18" coef=".336486837518"/><variable idx="19"/><variable idx="20"/></product><product><power><variable idx="18"/><number value="2"/></power><number value="-4.634160849469"/></product><product><power><variable idx="19"/><number value="2"/></power><number value="31.478262635483"/></product><product><power><variable idx="20"/><number value="2"/></power><number value="34.016843490037"/></product><product><variable idx="18" coef="1.153148892739"/><variable idx="19"/></product><product><variable idx="18" coef="1.168601192983"/><variable idx="20"/></product><product><variable idx="19" coef="-32.056936006397"/><variable idx="20"/></product><variable idx="18" coef="3.405095041238"/><variable idx="19" coef="-54.472915571467"/><variable idx="20" coef="9.56987912824"/></sum></negate></nl><nl idx="4"><negate><sum><product><power><variable idx="18"/><number value="3"/></power><number value="3.334445194766"/></product><product><power><variable idx="19"/><number value="3"/></power><number value="-2.265666208775"/></product><product><power><variable idx="20"/><number value="3"/></power><number value="-20.256566414583"/></product><product><power><variable idx="18"/><number value="2"/></power><number value=".413782262402"/><variable idx="19"/></product><product><power><variable idx="19"/><number value="2"/></power><number value="-3.523622273943"/><variable idx="18"/></product><product><power><variable idx="18"/><number value="2"/></power><number value="-.285910055687"/><variable idx="20"/></product><product><power><variable idx="20"/><number value="2"/></power><number value="-10.110726634622"/><variable idx="18"/></product><product><power><variable idx="19"/><number value="2"/></power><number value="1.95072196814"/><variable idx="20"/></product><product><power><variable idx="20"/><number value="2"/></power><number value="10.308512463418"/><variable idx="19"/></product><product><variable idx="18" coef="5.808426325827"/><variable idx="19"/><variable idx="20"/></product><product><power><variable idx="18"/><number value="2"/></power><number value="-6.932398033967"/></product><product><power><variable idx="19"/><number value="2"/></power><number value="15.80019426934"/></product><product><power><variable idx="20"/><number value="2"/></power><number value="39.197963873266"/></product><product><variable idx="18" coef="7.900706395772"/><variable idx="19"/></product><product><variable idx="18" coef="6.58186092156"/><variable idx="20"/></product><product><variable idx="19" coef="-30.119438887106"/><variable idx="20"/></product><variable idx="18" coef="-6.733798415788"/><variable idx="19" coef="-26.385308892431"/><variable idx="20" coef="-4.098268423019"/></sum></negate></nl><nl idx="5"><negate><sum><product><power><variable idx="18"/><number value="2"/></power><number value="-.194075741585"/></product><product><power><variable idx="19"/><number value="2"/></power><number value="-4.843420334e-3"/></product><product><power><variable idx="20"/><number value="2"/></power><number value="4.736686635e-2"/></product><product><variable idx="18" coef="9.4029979e-5"/><variable idx="19"/></product><product><variable idx="18" coef="1.1329651793e-2"/><variable idx="20"/></product><product><variable idx="19" coef="-1.017352942e-3"/><variable idx="20"/></product><variable idx="18" coef=".382275988592"/><variable idx="19" coef="1.9484588535e-2"/><variable idx="20" coef="-7.7357069039e-2"/></sum></negate></nl><nl idx="9"><product><variable idx="38" coef="-21.6"/><variable idx="39"/><variable idx="44"/></product></nl><nl idx="10"><negate><sum><product><power><variable idx="36"/><number value="3"/></power><number value="7.852585706e-3"/></product><product><power><variable idx="37"/><number value="3"/></power><number value=".154288922601"/></product><product><power><variable idx="38"/><number value="3"/></power><number value=".352933730854"/></product><product><power><variable idx="36"/><number value="2"/></power><number value="-4.816150342e-3"/><variable idx="37"/></product><product><power><variable idx="37"/><number value="2"/></power><number value="-5.47943134e-3"/><variable idx="36"/></product><product><power><variable idx="36"/><number value="2"/></power><number value="-2.533808214e-2"/><variable idx="38"/></product><product><power><variable idx="38"/><number value="2"/></power><number value="2.1201136e-4"/><variable idx="36"/></product><product><power><variable idx="37"/><number value="2"/></power><number value="-5.7118497613e-2"/><variable idx="38"/></product><product><power><variable idx="38"/><number value="2"/></power><number value="-4.2739509965e-2"/><variable idx="37"/></product><product><variable idx="36" coef="-1.583097252e-2"/><variable idx="37"/><variable idx="38"/></product><product><power><variable idx="36"/><number value="2"/></power><number value="-1.028174658e-3"/></product><product><power><variable idx="37"/><number value="2"/></power><number value="-.805369774847"/></product><product><power><variable idx="38"/><number value="2"/></power><number value="-.655580550098"/></product><product><variable idx="36" coef="5.7270405947e-2"/><variable idx="37"/></product><product><variable idx="36" coef="7.973036236e-2"/><variable idx="38"/></product><product><variable idx="37" coef=".342091579946"/><variable idx="38"/></product><variable idx="36" coef="-.191345333621"/><variable idx="37" coef="1.188971392024"/><variable idx="38" coef="-.346682012779"/></sum></negate></nl><nl idx="11"><negate><sum><product><power><variable idx="36"/><number value="3"/></power><number value="2.21406746341"/></product><product><power><variable idx="37"/><number value="3"/></power><number value="1.086659693552"/></product><product><power><variable idx="38"/><number value="3"/></power><number value="5.577874978662"/></product><product><power><variable idx="36"/><number value="2"/></power><number value="-.815241697738"/><variable idx="37"/></product><product><power><variable idx="37"/><number value="2"/></power><number value=".509578110533"/><variable idx="36"/></product><product><power><variable idx="36"/><number value="2"/></power><number value="1.561758113326"/><variable idx="38"/></product><product><power><variable idx="38"/><number value="2"/></power><number value="2.212321055022"/><variable idx="36"/></product><product><power><variable idx="37"/><number value="2"/></power><number value="-.612567680918"/><variable idx="38"/></product><product><power><variable idx="38"/><number value="2"/></power><number value=".254008083604"/><variable idx="37"/></product><product><variable idx="36" coef="-.159429747244"/><variable idx="37"/><variable idx="38"/></product><product><power><variable idx="36"/><number value="2"/></power><number value="-8.905599398536"/></product><product><power><variable idx="37"/><number value="2"/></power><number value="-6.095001164559"/></product><product><power><variable idx="38"/><number value="2"/></power><number value="-15.207539664993"/></product><product><variable idx="36" coef="8.9172114876e-2"/><variable idx="37"/></product><product><variable idx="36" coef="-3.273526677614"/><variable idx="38"/></product><product><variable idx="37" coef="2.498376358946"/><variable idx="38"/></product><variable idx="36" coef="2.621894664006"/><variable idx="37" coef="9.284846067558"/><variable idx="38" coef="5.837143728557"/></sum></negate></nl><nl idx="12"><negate><sum><product><power><variable idx="36"/><number value="3"/></power><number value="1.456640469666"/></product><product><power><variable idx="37"/><number value="3"/></power><number value="-5.495718264905"/></product><product><power><variable idx="38"/><number value="3"/></power><number value="-28.456261951645"/></product><product><power><variable idx="36"/><number value="2"/></power><number value=".912917970314"/><variable idx="37"/></product><product><power><variable idx="37"/><number value="2"/></power><number value="-.88119920631"/><variable idx="36"/></product><product><power><variable idx="36"/><number value="2"/></power><number value="-1.049763024383"/><variable idx="38"/></product><product><power><variable idx="38"/><number value="2"/></power><number value="-.308107344863"/><variable idx="36"/></product><product><power><variable idx="37"/><number value="2"/></power><number value="2.043536297441"/><variable idx="38"/></product><product><power><variable idx="38"/><number value="2"/></power><number value="15.609611231641"/><variable idx="37"/></product><product><variable idx="36" coef=".336486837518"/><variable idx="37"/><variable idx="38"/></product><product><power><variable idx="36"/><number value="2"/></power><number value="-4.634160849469"/></product><product><power><variable idx="37"/><number value="2"/></power><number value="31.478262635483"/></product><product><power><variable idx="38"/><number value="2"/></power><number value="34.016843490037"/></product><product><variable idx="36" coef="1.153148892739"/><variable idx="37"/></product><product><variable idx="36" coef="1.168601192983"/><variable idx="38"/></product><product><variable idx="37" coef="-32.056936006397"/><variable idx="38"/></product><variable idx="36" coef="3.405095041238"/><variable idx="37" coef="-54.472915571467"/><variable idx="38" coef="9.56987912824"/></sum></negate></nl><nl idx="13"><negate><sum><product><power><variable idx="36"/><number value="3"/></power><number value="3.334445194766"/></product><product><power><variable idx="37"/><number value="3"/></power><number value="-2.265666208775"/></product><product><power><variable idx="38"/><number value="3"/></power><number value="-20.256566414583"/></product><product><power><variable idx="36"/><number value="2"/></power><number value=".413782262402"/><variable idx="37"/></product><product><power><variable idx="37"/><number value="2"/></power><number value="-3.523622273943"/><variable idx="36"/></product><product><power><variable idx="36"/><number value="2"/></power><number value="-.285910055687"/><variable idx="38"/></product><product><power><variable idx="38"/><number value="2"/></power><number value="-10.110726634622"/><variable idx="36"/></product><product><power><variable idx="37"/><number value="2"/></power><number value="1.95072196814"/><variable idx="38"/></product><product><power><variable idx="38"/><number value="2"/></power><number value="10.308512463418"/><variable idx="37"/></product><product><variable idx="36" coef="5.808426325827"/><variable idx="37"/><variable idx="38"/></product><product><power><variable idx="36"/><number value="2"/></power><number value="-6.932398033967"/></product><product><power><variable idx="37"/><number value="2"/></power><number value="15.80019426934"/></product><product><power><variable idx="38"/><number value="2"/></power><number value="39.197963873266"/></product><product><variable idx="36" coef="7.900706395772"/><variable idx="37"/></product><product><variable idx="36" coef="6.58186092156"/><variable idx="38"/></product><product><variable idx="37" coef="-30.119438887106"/><variable idx="38"/></product><variable idx="36" coef="-6.733798415788"/><variable idx="37" coef="-26.385308892431"/><variable idx="38" coef="-4.098268423019"/></sum></negate></nl><nl idx="14"><negate><sum><product><power><variable idx="36"/><number value="2"/></power><number value="-.194075741585"/></product><product><power><variable idx="37"/><number value="2"/></power><number value="-4.843420334e-3"/></product><product><power><variable idx="38"/><number value="2"/></power><number value="4.736686635e-2"/></product><product><variable idx="36" coef="9.4029979e-5"/><variable idx="37"/></product><product><variable idx="36" coef="1.1329651793e-2"/><variable idx="38"/></product><product><variable idx="37" coef="-1.017352942e-3"/><variable idx="38"/></product><variable idx="36" coef=".382275988592"/><variable idx="37" coef="1.9484588535e-2"/><variable idx="38" coef="-7.7357069039e-2"/></sum></negate></nl><nl idx="18"><product><exp><variable idx="25" coef="-2.9595e-2"/></exp><sum><number value="33.7894914681534"/><variable idx="25"/></sum></product></nl><nl idx="19"><exp><variable idx="25" coef="-2.9595e-2"/></exp></nl><nl idx="20"><product><sum><product><power><variable idx="18"/><number value="2"/></power><number value="1.0073140669e-2"/></product><product><power><variable idx="19"/><number value="2"/></power><number value="1.1394190823e-2"/></product><product><power><variable idx="20"/><number value="2"/></power><number value="5.2910213683e-2"/></product><product><variable idx="18" coef="1.59410872e-4"/><variable idx="19"/></product><product><variable idx="18" coef="8.036404292e-3"/><variable idx="20"/></product><product><variable idx="19" coef="-3.423392047e-3"/><variable idx="20"/></product><variable idx="18" coef="9.7124049148e-2"/><variable idx="19" coef="3.829180344e-2"/><variable idx="20" coef=".370440556286"/></sum><number value="-.134723681728774"/></product></nl><nl idx="21"><product><sum><product><power><variable idx="18"/><number value="2"/></power><number value=".46598008632"/></product><product><power><variable idx="19"/><number value="2"/></power><number value="-7.97004615e-3"/></product><product><power><variable idx="20"/><number value="2"/></power><number value="-1.779288613e-2"/></product><product><variable idx="18" coef="-1.429434551e-2"/><variable idx="19"/></product><product><variable idx="18" coef="-3.832188467e-2"/><variable idx="20"/></product><product><variable idx="19" coef="9.70510229e-3"/><variable idx="20"/></product><variable idx="18" coef="-.88981702163"/><variable idx="19" coef="7.730602595e-2"/><variable idx="20" coef=".39988032723"/></sum><number value="-.134723681728774"/></product></nl><nl idx="22"><negate><divide><product><sum><divide><number value="2715.7894736842"/><variable idx="26"/></divide><variable idx="30" coef="5187"/><variable idx="31" coef="-5187"/></sum><variable idx="25"/></product><sum><variable idx="20" coef="4.32e3"/><variable idx="31" coef="-5187"/></sum></divide></negate></nl><nl idx="23"><product><exp><variable idx="29" coef="-2.9595e-2"/></exp><sum><number value="33.7894914681534"/><variable idx="29"/></sum></product></nl><nl idx="24"><exp><variable idx="29" coef="-2.9595e-2"/></exp></nl><nl idx="25"><product><exp><variable idx="43" coef="-2.9595e-2"/></exp><sum><number value="33.7894914681534"/><variable idx="43"/></sum></product></nl><nl idx="26"><exp><variable idx="43" coef="-2.9595e-2"/></exp></nl><nl idx="27"><product><sum><product><power><variable idx="36"/><number value="2"/></power><number value="1.0073140669e-2"/></product><product><power><variable idx="37"/><number value="2"/></power><number value="1.1394190823e-2"/></product><product><power><variable idx="38"/><number value="2"/></power><number value="5.2910213683e-2"/></product><product><variable idx="36" coef="1.59410872e-4"/><variable idx="37"/></product><product><variable idx="36" coef="8.036404292e-3"/><variable idx="38"/></product><product><variable idx="37" coef="-3.423392047e-3"/><variable idx="38"/></product><variable idx="36" coef="9.7124049148e-2"/><variable idx="37" coef="3.829180344e-2"/><variable idx="38" coef=".370440556286"/></sum><number value="-.134723681728774"/></product></nl><nl idx="28"><product><sum><product><power><variable idx="36"/><number value="2"/></power><number value=".46598008632"/></product><product><power><variable idx="37"/><number value="2"/></power><number value="-7.97004615e-3"/></product><product><power><variable idx="38"/><number value="2"/></power><number value="-1.779288613e-2"/></product><product><variable idx="36" coef="-1.429434551e-2"/><variable idx="37"/></product><product><variable idx="36" coef="-3.832188467e-2"/><variable idx="38"/></product><product><variable idx="37" coef="9.70510229e-3"/><variable idx="38"/></product><variable idx="36" coef="-.88981702163"/><variable idx="37" coef="7.730602595e-2"/><variable idx="38" coef=".39988032723"/></sum><number value="-.134723681728774"/></product></nl><nl idx="29"><negate><divide><product><sum><divide><number value="2715.7894736842"/><variable idx="44"/></divide><variable idx="48" coef="5187"/><variable idx="49" coef="-5187"/></sum><variable idx="43"/></product><sum><variable idx="38" coef="4.32e3"/><variable idx="49" coef="-5187"/></sum></divide></negate></nl><nl idx="30"><product><exp><variable idx="47" coef="-2.9595e-2"/></exp><sum><number value="33.7894914681534"/><variable idx="47"/></sum></product></nl><nl idx="31"><exp><variable idx="47" coef="-2.9595e-2"/></exp></nl><nl idx="56"><negate><sum><product><variable idx="14" coef=".412152560083595"/><variable idx="55"/></product><product><variable idx="13" coef=".247360857459789"/><variable idx="55"/></product><product><sum><product><sum><divide><variable idx="55" coef="11.34"/><variable idx="27"/></divide><product><sum><divide><number value=".854659090909091"/><variable idx="26"/></divide><negate><divide><number value="11.34"/><variable idx="27"/></divide></negate></sum><variable idx="25"/><variable idx="56"/></product></sum><variable idx="0"/></product><variable idx="55" coef="5.66666666666667e-2"/><product><sum><divide><variable idx="32" coef=".854659090909091"/><variable idx="26"/></divide><divide><sum><variable idx="32" coef="-11.34"/><variable idx="55" coef="11.34"/></sum><variable idx="27"/></divide><product><sum><divide><number value=".854659090909091"/><variable idx="26"/></divide><negate><divide><number value="11.34"/><variable idx="27"/></divide></negate></sum><variable idx="25"/><sum><variable idx="33" coef="-1"/><variable idx="56"/></sum></product></sum><variable idx="1"/></product><product><divide><variable idx="55" coef=".854659090909091"/><variable idx="26"/></divide><variable idx="2"/></product><product><variable idx="3" coef="1.728e-2"/><variable idx="20"/><variable idx="55"/></product><product><variable idx="0"/><variable idx="4"/><sum><product><sum><product><variable idx="31" coef="3.458e-2"/><variable idx="34"/></product><product><sum><divide><number value="1.81052631578947e-2"/><variable idx="26"/></divide><variable idx="30" coef="3.458e-2"/><variable idx="31" coef="-3.458e-2"/></sum><variable idx="25"/><variable idx="35"/></product></sum><number value=".6"/></product><product><variable idx="20" coef="1.728e-2"/><sum><variable idx="34" coef="-1"/><variable idx="55"/></sum></product></sum></product><product><variable idx="1"/><variable idx="4"/><sum><product><sum><product><sum><divide><number value="1.81052631578947e-2"/><variable idx="26"/></divide><variable idx="30" coef="3.458e-2"/></sum><variable idx="32"/></product><product><variable idx="31" coef="3.458e-2"/><sum><variable idx="32" coef="-1"/><variable idx="34"/></sum></product><product><sum><divide><number value="1.81052631578947e-2"/><variable idx="26"/></divide><variable idx="30" coef="3.458e-2"/><variable idx="31" coef="-3.458e-2"/></sum><variable idx="25"/><sum><variable idx="33" coef="-1"/><variable idx="35"/></sum></product></sum><number value=".6"/></product><product><variable idx="20" coef="1.728e-2"/><sum><variable idx="34" coef="-1"/><variable idx="55"/></sum></product></sum></product><product><variable idx="0" coef=".6"/><variable idx="5"/><sum><product><variable idx="31" coef="3.458e-2"/><variable idx="55"/></product><product><sum><divide><number value="1.81052631578947e-2"/><variable idx="26"/></divide><variable idx="30" coef="3.458e-2"/><variable idx="31" coef="-3.458e-2"/></sum><variable idx="25"/><variable idx="56"/></product></sum></product><product><variable idx="1" coef=".6"/><variable idx="5"/><sum><product><sum><divide><number value="1.81052631578947e-2"/><variable idx="26"/></divide><variable idx="30" coef="3.458e-2"/></sum><variable idx="32"/></product><product><variable idx="31" coef="3.458e-2"/><sum><variable idx="32" coef="-1"/><variable idx="55"/></sum></product><product><sum><divide><number value="1.81052631578947e-2"/><variable idx="26"/></divide><variable idx="30" coef="3.458e-2"/><variable idx="31" coef="-3.458e-2"/></sum><variable idx="25"/><sum><variable idx="33" coef="-1"/><variable idx="56"/></sum></product></sum></product><product><variable idx="2" coef=".6"/><variable idx="5"/><sum><divide><number value="1.81052631578947e-2"/><variable idx="26"/></divide><variable idx="30" coef="3.458e-2"/></sum><variable idx="55"/></product></sum><variable idx="12"/></product></sum></negate></nl><nl idx="58"><negate><sum><product><variable idx="17"/><sum><number value="13.6674288800091"/><variable idx="55" coef="-.412152560083595"/></sum></product><product><variable idx="16"/><sum><number value="8.20275610163388"/><variable idx="55" coef="-.247360857459789"/></sum></product><product><sum><product><sum><divide><sum><number value="376.046780997472"/><variable idx="55" coef="-11.34"/></sum><variable idx="45"/></divide><product><sum><divide><number value=".854659090909091"/><variable idx="44"/></divide><negate><divide><number value="11.34"/><variable idx="45"/></divide></negate></sum><variable idx="43"/><sum><number value=".997312113279821"/><variable idx="56" coef="-1"/></sum></product></sum><variable idx="6"/></product><variable idx="55" coef="-5.66666666666667e-2"/><product><sum><divide><sum><variable idx="50" coef=".854659090909091"/><variable idx="55" coef="-.854659090909091"/></sum><variable idx="44"/></divide><divide><sum><number value="376.046780997472"/><variable idx="50" coef="-11.34"/></sum><variable idx="45"/></divide><product><sum><divide><number value=".854659090909091"/><variable idx="44"/></divide><negate><divide><number value="11.34"/><variable idx="45"/></divide></negate></sum><variable idx="43"/><sum><number value=".997312113279821"/><variable idx="51" coef="-1"/></sum></product></sum><variable idx="7"/></product><product><divide><sum><number value="28.341428570246"/><variable idx="55" coef="-.854659090909091"/></sum><variable idx="44"/></divide><variable idx="8"/></product><product><variable idx="9" coef="1.728e-2"/><variable idx="38"/><sum><number value="33.1610917987189"/><variable idx="55" coef="-1"/></sum></product><product><variable idx="6"/><variable idx="10"/><sum><product><sum><product><variable idx="49" coef="3.458e-2"/><sum><variable idx="52"/><variable idx="55" coef="-1"/></sum></product><product><sum><divide><number value="1.81052631578947e-2"/><variable idx="44"/></divide><variable idx="48" coef="3.458e-2"/><variable idx="49" coef="-3.458e-2"/></sum><variable idx="43"/><sum><variable idx="53"/><variable idx="56" coef="-1"/></sum></product></sum><number value=".6"/></product><product><variable idx="38" coef="1.728e-2"/><sum><number value="33.1610917987189"/><variable idx="52" coef="-1"/></sum></product></sum></product><product><variable idx="7"/><variable idx="10"/><sum><product><sum><product><sum><divide><number value="1.81052631578947e-2"/><variable idx="44"/></divide><variable idx="48" coef="3.458e-2"/></sum><sum><variable idx="50"/><variable idx="55" coef="-1"/></sum></product><product><variable idx="49" coef="3.458e-2"/><sum><variable idx="50" coef="-1"/><variable idx="52"/></sum></product><product><sum><divide><number value="1.81052631578947e-2"/><variable idx="44"/></divide><variable idx="48" coef="3.458e-2"/><variable idx="49" coef="-3.458e-2"/></sum><variable idx="43"/><sum><variable idx="51" coef="-1"/><variable idx="53"/></sum></product></sum><number value=".6"/></product><product><variable idx="38" coef="1.728e-2"/><sum><number value="33.1610917987189"/><variable idx="52" coef="-1"/></sum></product></sum></product><product><variable idx="6" coef=".6"/><variable idx="11"/><sum><product><variable idx="49" coef="3.458e-2"/><sum><number value="33.1610917987189"/><variable idx="55" coef="-1"/></sum></product><product><sum><divide><number value="1.81052631578947e-2"/><variable idx="44"/></divide><variable idx="48" coef="3.458e-2"/><variable idx="49" coef="-3.458e-2"/></sum><variable idx="43"/><sum><number value=".997312113279821"/><variable idx="56" coef="-1"/></sum></product></sum></product><product><variable idx="7" coef=".6"/><variable idx="11"/><sum><product><sum><divide><number value="1.81052631578947e-2"/><variable idx="44"/></divide><variable idx="48" coef="3.458e-2"/></sum><sum><variable idx="50"/><variable idx="55" coef="-1"/></sum></product><product><variable idx="49" coef="3.458e-2"/><sum><number value="33.1610917987189"/><variable idx="50" coef="-1"/></sum></product><product><sum><divide><number value="1.81052631578947e-2"/><variable idx="44"/></divide><variable idx="48" coef="3.458e-2"/><variable idx="49" coef="-3.458e-2"/></sum><variable idx="43"/><sum><number value=".997312113279821"/><variable idx="51" coef="-1"/></sum></product></sum></product><product><variable idx="8" coef=".6"/><variable idx="11"/><sum><divide><number value="1.81052631578947e-2"/><variable idx="44"/></divide><variable idx="48" coef="3.458e-2"/></sum><sum><number value="33.1610917987189"/><variable idx="55" coef="-1"/></sum></product><number value="1.87912853526074"/></sum><variable idx="15"/></product></sum></negate></nl><nl idx="60"><product><exp><variable idx="54" coef="-2.9595e-2"/></exp><sum><number value="33.7894914681534"/><variable idx="54"/></sum></product></nl><nl idx="61"><exp><variable idx="54" coef="-2.9595e-2"/></exp></nl></nonlinearExpressions></instanceData></osil>